p cnf 111 361
47 57 60 0
48 62 0
69 70 0
54 68 75 0
49 98 0
36 81 93 0
41 42 43 107 0
50 110 0
61 73 79 0
40 46 77 0
35 55 90 0
53 76 0
52 83 96 0
87 89 0
64 85 0
37 80 0
72 91 95 0
59 97 0
39 56 99 100 0
101 102 0
44 94 105 0
65 108 109 0
30 32 111 0
28 29 0
26 27 71 0
24 25 58 0
22 92 104 0
86 88 0
19 20 0
-45 -47 0
-47 -54 0
-18 -47 0
-45 -54 0
-18 -45 0
-18 -54 0
-35 -61 0
-61 -67 0
-61 -96 0
-35 -67 0
-35 -96 0
-67 -96 0
-71 -78 0
-58 -78 0
-51 -78 0
-58 -71 0
-51 -71 0
-51 -58 0
-38 -92 0
-38 -106 0
-20 -38 0
-92 -106 0
-20 -92 0
-20 -106 0
-47 -61 0
-47 -78 0
-38 -47 0
-61 -78 0
-38 -61 0
-38 -78 0
-35 -45 0
-45 -71 0
-45 -92 0
-35 -71 0
-35 -92 0
-71 -92 0
-54 -67 0
-54 -58 0
-54 -106 0
-58 -67 0
-67 -106 0
-58 -106 0
-18 -96 0
-18 -51 0
-18 -20 0
-51 -96 0
-20 -96 0
-20 -51 0
-34 -60 0
-60 -69 0
-60 -68 0
-34 -69 0
-34 -68 0
-68 -69 0
-49 -81 0
-16 -49 0
-43 -49 0
-16 -81 0
-43 -81 0
-16 -43 0
-72 -80 0
-15 -80 0
-59 -80 0
-15 -72 0
-59 -72 0
-15 -59 0
-39 -94 0
-14 -39 0
-39 -108 0
-14 -94 0
-94 -108 0
-14 -108 0
-49 -60 0
-60 -80 0
-39 -60 0
-49 -80 0
-39 -49 0
-39 -80 0
-34 -81 0
-34 -72 0
-34 -94 0
-72 -81 0
-81 -94 0
-72 -94 0
-16 -69 0
-15 -69 0
-14 -69 0
-15 -16 0
-14 -16 0
-14 -15 0
-43 -68 0
-59 -68 0
-68 -108 0
-43 -59 0
-43 -108 0
-59 -108 0
-57 -62 0
-23 -57 0
-23 -62 0
-40 -79 0
-52 -79 0
-40 -52 0
-99 -101 0
-99 -111 0
-101 -111 0
-57 -79 0
-57 -99 0
-79 -99 0
-40 -62 0
-62 -101 0
-40 -101 0
-23 -52 0
-23 -111 0
-52 -111 0
-12 -93 0
-12 -13 0
-12 -107 0
-13 -93 0
-93 -107 0
-13 -107 0
-55 -77 0
-76 -77 0
-11 -77 0
-55 -76 0
-11 -55 0
-11 -76 0
-27 -29 0
-10 -29 0
-25 -29 0
-10 -27 0
-25 -27 0
-10 -25 0
-9 -22 0
-9 -86 0
-9 -63 0
-22 -86 0
-22 -63 0
-63 -86 0
-12 -77 0
-12 -29 0
-9 -12 0
-29 -77 0
-9 -77 0
-9 -29 0
-55 -93 0
-27 -93 0
-22 -93 0
-27 -55 0
-22 -55 0
-22 -27 0
-13 -76 0
-10 -13 0
-13 -86 0
-10 -76 0
-76 -86 0
-10 -86 0
-11 -107 0
-25 -107 0
-63 -107 0
-11 -25 0
-11 -63 0
-25 -63 0
-42 -98 0
-98 -110 0
-42 -110 0
-73 -74 0
-73 -83 0
-74 -83 0
-56 -65 0
-32 -56 0
-32 -65 0
-73 -98 0
-56 -98 0
-56 -73 0
-42 -74 0
-42 -65 0
-65 -74 0
-83 -110 0
-32 -110 0
-32 -83 0
-7 -48 0
-48 -70 0
-48 -75 0
-48 -82 0
-7 -70 0
-7 -75 0
-7 -82 0
-70 -75 0
-70 -82 0
-75 -82 0
-6 -36 0
-5 -6 0
-6 -41 0
-6 -50 0
-5 -36 0
-36 -41 0
-36 -50 0
-5 -41 0
-5 -50 0
-41 -50 0
-8 -21 0
-8 -87 0
-8 -64 0
-8 -31 0
-21 -87 0
-21 -64 0
-21 -31 0
-64 -87 0
-31 -87 0
-31 -64 0
-44 -102 0
-4 -102 0
-102 -109 0
-30 -102 0
-4 -44 0
-44 -109 0
-30 -44 0
-4 -109 0
-4 -30 0
-30 -109 0
-3 -104 0
-3 -88 0
-3 -84 0
-3 -19 0
-88 -104 0
-84 -104 0
-19 -104 0
-84 -88 0
-19 -88 0
-19 -84 0
-6 -48 0
-8 -48 0
-48 -102 0
-3 -48 0
-6 -8 0
-6 -102 0
-3 -6 0
-8 -102 0
-3 -8 0
-3 -102 0
-7 -36 0
-7 -21 0
-7 -44 0
-7 -104 0
-21 -36 0
-36 -44 0
-36 -104 0
-21 -44 0
-21 -104 0
-44 -104 0
-5 -70 0
-70 -87 0
-4 -70 0
-70 -88 0
-5 -87 0
-4 -5 0
-5 -88 0
-4 -87 0
-87 -88 0
-4 -88 0
-41 -75 0
-64 -75 0
-75 -109 0
-75 -84 0
-41 -64 0
-41 -109 0
-41 -84 0
-64 -109 0
-64 -84 0
-84 -109 0
-50 -82 0
-31 -82 0
-30 -82 0
-19 -82 0
-31 -50 0
-30 -50 0
-19 -50 0
-30 -31 0
-19 -31 0
-19 -30 0
-37 -91 0
-100 -105 0
-37 -100 0
-91 -105 0
-46 -90 0
-46 -53 0
-17 -46 0
-53 -90 0
-17 -90 0
-17 -53 0
-2 -103 0
-2 -89 0
-2 -85 0
-89 -103 0
-85 -103 0
-85 -89 0
-33 -95 0
-33 -66 0
-33 -97 0
-66 -95 0
-95 -97 0
-66 -97 0
-26 -28 0
-1 -28 0
-24 -28 0
-1 -26 0
-24 -26 0
-1 -24 0
-2 -46 0
-33 -46 0
-28 -46 0
-2 -33 0
-2 -28 0
-28 -33 0
-90 -103 0
-90 -95 0
-26 -90 0
-95 -103 0
-26 -103 0
-26 -95 0
-53 -89 0
-53 -66 0
-1 -53 0
-66 -89 0
-1 -89 0
-1 -66 0
-17 -85 0
-17 -97 0
-17 -24 0
-85 -97 0
-24 -85 0
-24 -97 0
